This is Ipopt version 3.10.0, running with linear solver ma27.

Number of nonzeros in equality constraint Jacobian...:        0
Number of nonzeros in inequality constraint Jacobian.:       48
Number of nonzeros in Lagrangian Hessian.............:        0

Total number of variables............................:        6
                     variables with only lower bounds:        3
                variables with lower and upper bounds:        3
                     variables with only upper bounds:        0
Total number of equality constraints.................:        0
Total number of inequality constraints...............:        8
        inequality constraints with only lower bounds:        0
   inequality constraints with lower and upper bounds:        0
        inequality constraints with only upper bounds:        8

iter    objective    inf_pr   inf_du lg(mu)  ||d||  lg(rg) alpha_du alpha_pr  ls
   0  3.8435285e+00 3.01e+00 1.25e+00   0.0 0.00e+00    -  0.00e+00 0.00e+00   0
   1  5.6060698e+00 1.01e+00 5.24e+00  -0.3 2.39e+00    -  6.02e-01 1.00e+00f  1
   2  6.4983806e+00 3.49e-01 2.05e+00  -0.3 1.04e+00    -  8.57e-01 8.85e-01h  1
   3  6.8280908e+00 2.37e-01 2.00e+00  -0.9 3.76e-01    -  9.32e-01 5.89e-01h  1
   4  6.3273803e+00 7.29e-01 2.16e+01  -1.4 7.97e-01    -  1.00e+00 9.71e-01H  1
   5  6.1415538e+00 3.86e-01 1.98e+00  -1.1 3.63e-01    -  1.00e+00 8.53e-01f  1
   6  6.5527964e+00 2.41e-02 1.96e+00  -1.2 3.64e-01    -  5.33e-01 8.91e-01h  1
   7  6.4281157e+00 1.76e-02 3.39e+00  -1.9 1.77e-01    -  1.00e+00 1.00e+00h  1
   8  6.2714750e+00 2.00e-02 2.44e+00  -3.0 4.14e-01    -  1.00e+00 4.86e-01h  1
   9  6.1852040e+00 6.76e-03 1.32e+00  -2.9 2.05e-01    -  1.00e+00 3.50e-01h  1
iter    objective    inf_pr   inf_du lg(mu)  ||d||  lg(rg) alpha_du alpha_pr  ls
  10  6.1460532e+00 6.15e-03 4.69e-01  -3.0 4.85e-02    -  1.00e+00 1.00e+00h  1
  11  6.1460038e+00 1.06e-02 8.15e-01  -3.2 2.06e-02    -  1.00e+00 7.49e-04h 11
  12  6.1808897e+00 2.28e-03 5.76e-01  -3.2 3.04e-02    -  1.00e+00 8.37e-01h  1
  13  6.1809113e+00 3.16e-03 5.83e-01  -3.9 4.51e-03    -  1.00e+00 1.21e-01h  4

Number of Iterations....: 13

                                   (scaled)                 (unscaled)
Objective...............:   6.1809112524775456e+00    6.1809112524775456e+00
Dual infeasibility......:   5.8286843528095311e-01    5.8286843528095311e-01
Constraint violation....:   3.1585883734362385e-03    3.1585883734362385e-03
Complementarity.........:   8.5814013076977247e-04    8.5814013076977247e-04
Overall NLP error.......:   5.8286843528095311e-01    5.8286843528095311e-01


Number of objective function evaluations             = 30
Number of objective gradient evaluations             = 14
Number of equality constraint evaluations            = 0
Number of inequality constraint evaluations          = 30
Number of equality constraint Jacobian evaluations   = 0
Number of inequality constraint Jacobian evaluations = 14
Number of Lagrangian Hessian evaluations             = 0
Total CPU secs in IPOPT (w/o function evaluations)   =      0.018
Total CPU secs in NLP function evaluations           =    502.210

EXIT: Stopping optimization at current point as requested by user.
